examples/simple2_0_0.output
# Error: undeclared identifier  time_0_t (triggered at /Users/maxtby/src/dreal3/src/opensmt/egraph/EgraphStore.C, 598)
